language ESSENCE' 1.0
letting lastdx=99
letting cage be [
[15,8,9,0,0, 0,0, 0,0, 0,0],
[7,3,13,0,0, 0,0, 0,0, 0,0],
[46,14,12,14,13,15,13,15,14,16,14],
[7,13,16,0,0, 0,0, 0,0, 0,0],
[52,10,12,11,12,11,11,10,11,9,11],
[16,16,6,16,5,0,0, 0,0, 0,0],
[9,4,14,0,0, 0,0, 0,0, 0,0],
[2,11,16,0,0, 0,0, 0,0, 0,0],
[6,12,12,0,0, 0,0, 0,0, 0,0],
[22,9,2,8,2,7,2,0,0, 0,0],
[47,6,4,5,4,4,4,3,4,3,5],
[8,5,15,0,0, 0,0, 0,0, 0,0],
[21,3,7,3,8,0,0, 0,0, 0,0],
[11,14,4,13,4,0,0, 0,0, 0,0],
[52,7,16,7,15,6,15,6,14,5,14],
[10,6,5,0,0, 0,0, 0,0, 0,0],
[5,3,1,2,1,0,0, 0,0, 0,0],
[37,11,10,10,10,9,10,8,10,0,0],
[5,12,8,0,0, 0,0, 0,0, 0,0],
[23,16,7,15,7,0,0, 0,0, 0,0],
[6,5,3,0,0, 0,0, 0,0, 0,0],
[29,7,7,7,8,8,8,8,7,0,0],
[2,15,4,0,0, 0,0, 0,0, 0,0],
[21,15,10,16,10,16,11,0,0, 0,0],
[17,11,4,10,4,0,0, 0,0, 0,0],
[35,11,2,10,2,10,1,0,0, 0,0],
[26,9,3,10,3,11,3,12,3,12,2],
[44,2,14,3,14,3,15,4,15,0,0],
[40,9,13,9,14,8,14,8,13,0,0],
[31,12,7,13,7,13,8,0,0, 0,0],
[16,14,1,14,2,13,2,13,1,0,0],
[7,1,7,0,0, 0,0, 0,0, 0,0],
[28,8,4,8,5,8,6,9,6,0,0],
[9,9,16,0,0, 0,0, 0,0, 0,0],
[6,1,9,0,0, 0,0, 0,0, 0,0],
[37,7,3,8,3,7,4,7,5,0,0],
[42,14,3,13,3,15,3,0,0, 0,0],
[16,9,12,8,12,7,12,0,0, 0,0],
[25,4,1,5,1,5,2,0,0, 0,0],
[20,11,6,11,7,0,0, 0,0, 0,0],
[21,8,1,9,1,0,0, 0,0, 0,0],
[28,12,4,12,5,0,0, 0,0, 0,0],
[5,2,7,0,0, 0,0, 0,0, 0,0],
[15,1,15,1,14,0,0, 0,0, 0,0],
[17,2,12,2,11,0,0, 0,0, 0,0],
[16,1,10,0,0, 0,0, 0,0, 0,0],
[42,2,8,1,8,2,9,3,9,0,0],
[1,3,3,0,0, 0,0, 0,0, 0,0],
[9,14,15,0,0, 0,0, 0,0, 0,0],
[10,11,15,0,0, 0,0, 0,0, 0,0],
[1,15,5,0,0, 0,0, 0,0, 0,0],
[47,4,5,4,6,3,6,2,6,1,6],
[16,6,11,0,0, 0,0, 0,0, 0,0],
[15,16,16,0,0, 0,0, 0,0, 0,0],
[17,6,6,7,6,0,0, 0,0, 0,0],
[15,7,11,8,11,0,0, 0,0, 0,0],
[18,13,14,14,14,0,0, 0,0, 0,0],
[28,13,5,13,6,12,6,0,0, 0,0],
[32,3,11,3,12,4,12,0,0, 0,0],
[23,3,10,2,10,4,10,0,0, 0,0],
[12,15,9,0,0, 0,0, 0,0, 0,0],
[19,4,7,5,7,6,7,0,0, 0,0],
[10,15,1,0,0, 0,0, 0,0, 0,0],
[16,1,11,1,12,1,13,2,13,0,0],
[55,16,2,15,2,16,1,16,3,16,4],
[18,4,3,4,2,0,0, 0,0, 0,0],
[16,15,12,0,0, 0,0, 0,0, 0,0],
[6,5,16,6,16,0,0, 0,0, 0,0],
[21,9,15,8,15,8,16,0,0, 0,0],
[33,16,15,15,15,15,16,14,16,0,0],
[25,16,9,16,8,15,8,0,0, 0,0],
[43,5,11,4,11,5,10,5,9,5,8],
[21,10,8,11,8,0,0, 0,0, 0,0],
[23,10,16,10,15,10,14,0,0, 0,0],
[10,10,5,11,5,10,6,10,7,0,0],
[14,12,1,11,1,0,0, 0,0, 0,0],
[39,2,15,2,16,1,16,3,16,4,16],
[23,6,1,7,1,0,0, 0,0, 0,0],
[23,5,6,5,5,0,0, 0,0, 0,0],
[4,16,13,16,12,0,0, 0,0, 0,0],
[56,2,3,2,2,3,2,1,2,1,1],
[15,4,8,4,9,0,0, 0,0, 0,0],
[15,13,11,0,0, 0,0, 0,0, 0,0],
[18,6,9,6,8,6,10,0,0, 0,0],
[15,14,11,15,11,0,0, 0,0, 0,0],
[42,4,13,5,13,5,12,6,12,0,0],
[6,6,2,6,3,0,0, 0,0, 0,0],
[26,6,13,7,13,7,14,0,0, 0,0],
[15,7,9,7,10,0,0, 0,0, 0,0],
[28,9,4,9,5,0,0, 0,0, 0,0],
[6,9,7,0,0, 0,0, 0,0, 0,0],
[10,9,8,0,0, 0,0, 0,0, 0,0],
[29,9,9,10,9,11,9,0,0, 0,0],
[39,10,13,11,13,11,14,12,14,12,13],
[5,12,10,12,11,0,0, 0,0, 0,0],
[31,12,15,12,16,13,15,0,0, 0,0],
[27,13,10,14,10,0,0, 0,0, 0,0],
[22,13,12,13,13,0,0, 0,0, 0,0],
[6,14,5,0,0, 0,0, 0,0, 0,0],
[17,14,6,15,6,0,0, 0,0, 0,0]
]
